certificates/rado_a11_c38_N39.cnf
c Rad2 upper bound instance: x1 + 11*x2 - x3 = 38, interval [1,39]
p cnf 39 268
1 4 7 0
-1 -4 -7 0
1 5 18 0
-1 -5 -18 0
1 6 29 0
-1 -6 -29 0
2 4 8 0
-2 -4 -8 0
2 5 19 0
-2 -5 -19 0
2 6 30 0
-2 -6 -30 0
3 4 9 0
-3 -4 -9 0
3 5 20 0
-3 -5 -20 0
3 6 31 0
-3 -6 -31 0
4 10 0
-4 -10 0
4 5 21 0
-4 -5 -21 0
4 6 32 0
-4 -6 -32 0
4 5 11 0
-4 -5 -11 0
5 22 0
-5 -22 0
5 6 33 0
-5 -6 -33 0
1 3 6 0
-1 -3 -6 0
4 6 12 0
-4 -6 -12 0
5 6 23 0
-5 -6 -23 0
6 34 0
-6 -34 0
2 3 7 0
-2 -3 -7 0
4 7 13 0
-4 -7 -13 0
5 7 24 0
-5 -7 -24 0
6 7 35 0
-6 -7 -35 0
3 8 0
-3 -8 0
4 8 14 0
-4 -8 -14 0
5 8 25 0
-5 -8 -25 0
6 8 36 0
-6 -8 -36 0
4 9 15 0
-4 -9 -15 0
5 9 26 0
-5 -9 -26 0
6 9 37 0
-6 -9 -37 0
3 5 10 0
-3 -5 -10 0
4 10 16 0
-4 -10 -16 0
5 10 27 0
-5 -10 -27 0
6 10 38 0
-6 -10 -38 0
3 6 11 0
-3 -6 -11 0
4 11 17 0
-4 -11 -17 0
5 11 28 0
-5 -11 -28 0
6 11 39 0
-6 -11 -39 0
3 7 12 0
-3 -7 -12 0
4 12 18 0
-4 -12 -18 0
5 12 29 0
-5 -12 -29 0
3 8 13 0
-3 -8 -13 0
4 13 19 0
-4 -13 -19 0
5 13 30 0
-5 -13 -30 0
3 9 14 0
-3 -9 -14 0
4 14 20 0
-4 -14 -20 0
5 14 31 0
-5 -14 -31 0
3 10 15 0
-3 -10 -15 0
4 15 21 0
-4 -15 -21 0
5 15 32 0
-5 -15 -32 0
3 11 16 0
-3 -11 -16 0
4 16 22 0
-4 -16 -22 0
5 16 33 0
-5 -16 -33 0
1 2 17 0
-1 -2 -17 0
3 12 17 0
-3 -12 -17 0
4 17 23 0
-4 -17 -23 0
5 17 34 0
-5 -17 -34 0
2 18 0
-2 -18 0
3 13 18 0
-3 -13 -18 0
4 18 24 0
-4 -18 -24 0
5 18 35 0
-5 -18 -35 0
2 3 19 0
-2 -3 -19 0
3 14 19 0
-3 -14 -19 0
4 19 25 0
-4 -19 -25 0
5 19 36 0
-5 -19 -36 0
2 4 20 0
-2 -4 -20 0
3 15 20 0
-3 -15 -20 0
4 20 26 0
-4 -20 -26 0
5 20 37 0
-5 -20 -37 0
2 5 21 0
-2 -5 -21 0
3 16 21 0
-3 -16 -21 0
4 21 27 0
-4 -21 -27 0
5 21 38 0
-5 -21 -38 0
2 6 22 0
-2 -6 -22 0
3 17 22 0
-3 -17 -22 0
4 22 28 0
-4 -22 -28 0
5 22 39 0
-5 -22 -39 0
2 7 23 0
-2 -7 -23 0
3 18 23 0
-3 -18 -23 0
4 23 29 0
-4 -23 -29 0
2 8 24 0
-2 -8 -24 0
3 19 24 0
-3 -19 -24 0
4 24 30 0
-4 -24 -30 0
2 9 25 0
-2 -9 -25 0
3 20 25 0
-3 -20 -25 0
4 25 31 0
-4 -25 -31 0
2 10 26 0
-2 -10 -26 0
3 21 26 0
-3 -21 -26 0
4 26 32 0
-4 -26 -32 0
2 11 27 0
-2 -11 -27 0
3 22 27 0
-3 -22 -27 0
4 27 33 0
-4 -27 -33 0
1 28 0
-1 -28 0
2 12 28 0
-2 -12 -28 0
3 23 28 0
-3 -23 -28 0
4 28 34 0
-4 -28 -34 0
1 2 29 0
-1 -2 -29 0
2 13 29 0
-2 -13 -29 0
3 24 29 0
-3 -24 -29 0
4 29 35 0
-4 -29 -35 0
1 3 30 0
-1 -3 -30 0
2 14 30 0
-2 -14 -30 0
3 25 30 0
-3 -25 -30 0
4 30 36 0
-4 -30 -36 0
1 4 31 0
-1 -4 -31 0
2 15 31 0
-2 -15 -31 0
3 26 31 0
-3 -26 -31 0
4 31 37 0
-4 -31 -37 0
1 5 32 0
-1 -5 -32 0
2 16 32 0
-2 -16 -32 0
3 27 32 0
-3 -27 -32 0
4 32 38 0
-4 -32 -38 0
1 6 33 0
-1 -6 -33 0
2 17 33 0
-2 -17 -33 0
3 28 33 0
-3 -28 -33 0
4 33 39 0
-4 -33 -39 0
1 7 34 0
-1 -7 -34 0
2 18 34 0
-2 -18 -34 0
3 29 34 0
-3 -29 -34 0
1 8 35 0
-1 -8 -35 0
2 19 35 0
-2 -19 -35 0
3 30 35 0
-3 -30 -35 0
1 9 36 0
-1 -9 -36 0
2 20 36 0
-2 -20 -36 0
3 31 36 0
-3 -31 -36 0
1 10 37 0
-1 -10 -37 0
2 21 37 0
-2 -21 -37 0
3 32 37 0
-3 -32 -37 0
1 11 38 0
-1 -11 -38 0
2 22 38 0
-2 -22 -38 0
3 33 38 0
-3 -33 -38 0
1 12 39 0
-1 -12 -39 0
2 23 39 0
-2 -23 -39 0
3 34 39 0
-3 -34 -39 0
