certificates/rado_a11_c38_N39.drat
-34 -38 -39 0
8 34 0
-38 -39 0
d -34 -38 -39 0
34 -39 0
-39 0
3 -34 0
-34 38 0
34 0
-6 0
3 0
38 0
11 0
-8 0
-29 0
-33 0
-16 0
-1 0
36 0
0
